T=13;
V=52;
graph=[{2,7},{1,3,8},{2,9},{5,12},{4,6,13},{5,14},{1,8,15},{2,7,9,16},{3,8,10,17},{9,11},{10,12,18},{4,11,13,19},{5,12,14,20},{6,13,21},{7,16,22},{8,15,17,23},{9,16,24},{11,19,26},{12,18,20},{13,19,21,27},{14,20},{15,23,28},{16,22,24,29},{17,23,25,30},{24,26,31},{18,25,32},{20},{22,29},{23,28,30,34},{24,29,31,35},{25,30,32,36},{26,31,33,37},{32},{29,35},{30,34,36,41},{31,35,37,42},{32,36},{39,44},{38,45},{46},{35,42,48},{36,41},{44,50},{38,43,45,51},{39,44,52},{40,47},{46,48},{41,47},{50},{43,49,51},{44,50,52},{45,51}];
A=20;
start=[15,23,16,6,18,50,36,10,7,46,40,13,32,44,8,30,28,12,41,20];
end=[2,22,18,28,13,51,1,17,15,7,40,9,24,45,14,47,36,27,29,6];
